 $CONTRL SCFTYP=UHF RUNTYP=OPTIMIZE MAXIT=199 AIMPAC=.TRUE.
  ICUT=16 ITOL=16 QMTTOL=1E-16 ISPHER=1 MULT=2 ICHARG=0 $END
 $SYSTEM MWORDS=383 MEMDDI=340 PARALL=.TRUE. $END 
 $SCF DIRSCF=.FALSE. NCONV=9 FDIFF=.FALSE. DIIS=.TRUE. ETHRSH=2.0
  SWDIIS=0.5 UHFNOS=.FALSE. $END
 $BASIS GBASIS=ACCD $END
 $DATA 
Title goes here
DNH 3

H     1.0    -0.34641    -0.60000     0.00000
 $END
